c generated by sgen
p cnf 97 204
-2 -3 -4 0
-1 -3 -4 0
-1 -2 -4 0
-1 -2 -3 0
-6 -7 -8 0
-5 -7 -8 0
-5 -6 -8 0
-5 -6 -7 0
-10 -11 -12 0
-9 -11 -12 0
-9 -10 -12 0
-9 -10 -11 0
-14 -15 -16 0
-13 -15 -16 0
-13 -14 -16 0
-13 -14 -15 0
-18 -19 -20 0
-17 -19 -20 0
-17 -18 -20 0
-17 -18 -19 0
-22 -23 -24 0
-21 -23 -24 0
-21 -22 -24 0
-21 -22 -23 0
-26 -27 -28 0
-25 -27 -28 0
-25 -26 -28 0
-25 -26 -27 0
-30 -31 -32 0
-29 -31 -32 0
-29 -30 -32 0
-29 -30 -31 0
-34 -35 -36 0
-33 -35 -36 0
-33 -34 -36 0
-33 -34 -35 0
-38 -39 -40 0
-37 -39 -40 0
-37 -38 -40 0
-37 -38 -39 0
-42 -43 -44 0
-41 -43 -44 0
-41 -42 -44 0
-41 -42 -43 0
-46 -47 -48 0
-45 -47 -48 0
-45 -46 -48 0
-45 -46 -47 0
-50 -51 -52 0
-49 -51 -52 0
-49 -50 -52 0
-49 -50 -51 0
-54 -55 -56 0
-53 -55 -56 0
-53 -54 -56 0
-53 -54 -55 0
-58 -59 -60 0
-57 -59 -60 0
-57 -58 -60 0
-57 -58 -59 0
-62 -63 -64 0
-61 -63 -64 0
-61 -62 -64 0
-61 -62 -63 0
-66 -67 -68 0
-65 -67 -68 0
-65 -66 -68 0
-65 -66 -67 0
-70 -71 -72 0
-69 -71 -72 0
-69 -70 -72 0
-69 -70 -71 0
-74 -75 -76 0
-73 -75 -76 0
-73 -74 -76 0
-73 -74 -75 0
-78 -79 -80 0
-77 -79 -80 0
-77 -78 -80 0
-77 -78 -79 0
-82 -83 -84 0
-81 -83 -84 0
-81 -82 -84 0
-81 -82 -83 0
-86 -87 -88 0
-85 -87 -88 0
-85 -86 -88 0
-85 -86 -87 0
-90 -91 -92 0
-89 -91 -92 0
-89 -90 -92 0
-89 -90 -91 0
-93 -94 -95 0
-93 -94 -96 0
-93 -94 -97 0
-93 -95 -96 0
-93 -95 -97 0
-93 -96 -97 0
-94 -95 -96 0
-94 -95 -97 0
-94 -96 -97 0
-95 -96 -97 0
79 71 4 0
31 71 4 0
31 79 4 0
31 79 71 0
10 97 24 0
57 97 24 0
57 10 24 0
57 10 97 0
38 14 45 0
78 14 45 0
78 38 45 0
78 38 14 0
25 16 56 0
63 16 56 0
63 25 56 0
63 25 16 0
48 92 58 0
93 92 58 0
93 48 58 0
93 48 92 0
2 42 62 0
11 42 62 0
11 2 62 0
11 2 42 0
83 37 20 0
28 37 20 0
28 83 20 0
28 83 37 0
66 17 73 0
89 17 73 0
89 66 73 0
89 66 17 0
34 43 46 0
18 43 46 0
18 34 46 0
18 34 43 0
94 36 54 0
76 36 54 0
76 94 54 0
76 94 36 0
26 60 90 0
1 60 90 0
1 26 90 0
1 26 60 0
84 13 30 0
6 13 30 0
6 84 30 0
6 84 13 0
95 67 41 0
7 67 41 0
7 95 41 0
7 95 67 0
40 29 59 0
44 29 59 0
44 40 59 0
44 40 29 0
32 65 21 0
53 65 21 0
53 32 21 0
53 32 65 0
80 19 61 0
5 19 61 0
5 80 61 0
5 80 19 0
33 3 68 0
49 3 68 0
49 33 68 0
49 33 3 0
47 82 69 0
12 82 69 0
12 47 69 0
12 47 82 0
23 27 74 0
86 27 74 0
86 23 74 0
86 23 27 0
81 64 35 0
88 64 35 0
88 81 35 0
88 81 64 0
87 15 72 0
96 15 72 0
96 87 72 0
96 87 15 0
52 39 85 0
55 39 85 0
55 52 85 0
55 52 39 0
77 75 51 0
9 75 51 0
9 77 51 0
9 77 75 0
8 91 70 0
8 91 50 0
8 91 22 0
8 70 50 0
8 70 22 0
8 50 22 0
91 70 50 0
91 70 22 0
91 50 22 0
70 50 22 0
